Route #1: 32 36 3 19 25 5 23 
Route #2: 6 1 43 31 12 
Route #3: 40 39 26 20 15 9 
Route #4: 34 29 24 42 11 4 13 46 30 21 
Route #5: 17 41 2 33 10 28 
Route #6: 7 45 27 8 37 38 22 44 
Route #7: 18 35 16 47 14 
cost 1262.23
execution_time 16.13
